&control
   prefix = 'WS2'
   !pseudo_dir = '/global/u2/w/wkim94/pseudo/pseudodojo/nc-sr-04_pbe_standard_upf/'
   pseudo_dir = '/global/u2/w/wkim94/pseudo/pseudodojo/nc-sr-04_pw_standard_upf/'
   calculation = 'bands'
   verbosity = 'high'
/
&system
   ecutwfc = 20.0
!   A = 3.290
   ibrav = 0
   nat = 3
   ntyp = 2
!   lspinorb = .true.
!   noncolin = .true.
   nosym = .true.
   noinv = .true.
   nbnd = 20
/
&electrons
   electron_maxstep = 100
   conv_thr = 1e-06
   mixing_mode = 'plain'
   mixing_beta = 0.3
   mixing_ndim = 8
   diagonalization = 'david'
   diago_david_ndim = 4
   diago_full_acc = .true.
/
CELL_PARAMETERS {angstrom}
3.1500000000000 0.000000000000  0.00
1.575000000000  2.7279800219    0.00 
0.000000000000  0.000000000000  25.0 
ATOMIC_SPECIES 
   W 183.84 'W.upf'
   S 78.96  'S.upf'
ATOMIC_POSITIONS crystal
 W   0.33333333333333 0.33333333333333 0.5000000000 
 S   0.66666666666667 0.66666666666667 0.4360000000 
 S   0.66666666666667 0.66666666666667 0.5640000000 

K_POINTS crystal
36
0.0000000000  0.0000000000  0.0000000000  1.0
0.0000000000  0.1666666667  0.0000000000  1.0
0.0000000000  0.3333333333  0.0000000000  1.0
0.0000000000  0.5000000000  0.0000000000  1.0
0.0000000000  0.6666666667  0.0000000000  1.0
0.0000000000  0.8333333333  0.0000000000  1.0
0.1666666667  0.0000000000  0.0000000000  1.0
0.1666666667  0.1666666667  0.0000000000  1.0
0.1666666667  0.3333333333  0.0000000000  1.0
0.1666666667  0.5000000000  0.0000000000  1.0
0.1666666667  0.6666666667  0.0000000000  1.0
0.1666666667  0.8333333333  0.0000000000  1.0
0.3333333333  0.0000000000  0.0000000000  1.0
0.3333333333  0.1666666667  0.0000000000  1.0
0.3333333333  0.3333333333  0.0000000000  1.0
0.3333333333  0.5000000000  0.0000000000  1.0
0.3333333333  0.6666666667  0.0000000000  1.0
0.3333333333  0.8333333333  0.0000000000  1.0
0.5000000000  0.0000000000  0.0000000000  1.0
0.5000000000  0.1666666667  0.0000000000  1.0
0.5000000000  0.3333333333  0.0000000000  1.0
0.5000000000  0.5000000000  0.0000000000  1.0
0.5000000000  0.6666666667  0.0000000000  1.0
0.5000000000  0.8333333333  0.0000000000  1.0
0.6666666667  0.0000000000  0.0000000000  1.0
0.6666666667  0.1666666667  0.0000000000  1.0
0.6666666667  0.3333333333  0.0000000000  1.0
0.6666666667  0.5000000000  0.0000000000  1.0
0.6666666667  0.6666666667  0.0000000000  1.0
0.6666666667  0.8333333333  0.0000000000  1.0
0.8333333333  0.0000000000  0.0000000000  1.0
0.8333333333  0.1666666667  0.0000000000  1.0
0.8333333333  0.3333333333  0.0000000000  1.0
0.8333333333  0.5000000000  0.0000000000  1.0
0.8333333333  0.6666666667  0.0000000000  1.0
0.8333333333  0.8333333333  0.0000000000  1.0
