&inputpp
   prefix  = 'WS2'
   outdir='.'
   filplot = 'Rho'
   plot_num = 0
/
&plot
  nfile=1
  filepp(1)='Rho'
  weight(1)=1.0
  iflag=3
  output_format=6
  fileout='Rho.cube'
/
