&inputpp
   prefix  = 'WS2'
   outdir='.'
   filplot = 'Vtot'
   plot_num = 1
/
&plot
  nfile=1
  filepp(1)='Vtot'
  weight(1)=1.0
  iflag=3
  output_format=6
  fileout='Vtot.cube'
/
