&control
   prefix = 'graphene'
   pseudo_dir = '/global/u2/w/wkim94/pseudo/pseudodojo/nc-sr-04_pbe_standard_upf/'
   calculation = 'scf'
   verbosity = 'high'
/
&system
   ecutwfc = 40.0
   A = 2.460
   ibrav = 0
   nat = 1
   ntyp = 1
!   lspinorb = .true.
!   noncolin = .true.
   nosym = .true.
   noinv = .true.
   occupations = "smearing"
   smearing = "gaussian"
   degauss  = 0.0001
/
&electrons
   electron_maxstep = 100
   conv_thr = 1e-06
   mixing_mode = 'plain'
   mixing_beta = 0.3
   mixing_ndim = 8
   diagonalization = 'david'
   diago_david_ndim = 4
   diago_full_acc = .true.
/
ATOMIC_SPECIES
C   12.011  'C.upf'

CELL_PARAMETERS {alat}
1.0000000000 0.0000000000 0.0000000000
0.5000000000 0.8660254038 0.0000000000
0.0000000000 0.0000000000 8.9430894309

ATOMIC_POSITIONS (crystal)
C 0.3333333333 0.3333333333 0.1020678295 
C 0.6666666667 0.6666666667 0.1020678295 


K_POINTS automatic
6 6 1 0 0 0
