&control
   prefix = 'WS2'
   !pseudo_dir = '/global/u2/w/wkim94/pseudo/pseudodojo/nc-sr-04_pbe_standard_upf/'
   pseudo_dir = '/work2/08702/wkim94/frontera/pseudo/pseudodojo/nc-sr-04_pbe_standard_upf/'
   calculation = 'bands'
   verbosity = 'high'
/
&system
   ecutwfc = 20.0
!   A = 3.290
   ibrav = 0
   nat = 3
   ntyp = 2
!   lspinorb = .true.
!   noncolin = .true.
   nosym = .true.
   noinv = .true.
   nbnd = 20
/
&electrons
   electron_maxstep = 100
   conv_thr = 1e-06
   mixing_mode = 'plain'
   mixing_beta = 0.3
   mixing_ndim = 8
   diagonalization = 'david'
   diago_david_ndim = 4
   diago_full_acc = .true.
/
CELL_PARAMETERS {angstrom}
3.1500000000000 0.000000000000  0.00
1.575000000000  2.7279800219    0.00 
0.000000000000  0.000000000000  25.0 
ATOMIC_SPECIES 
   W 183.84 'W.upf'
   S 78.96  'S.upf'
ATOMIC_POSITIONS crystal
 W   0.33333333333333 0.33333333333333 0.5000000000 
 S   0.66666666666667 0.66666666666667 0.4360000000 
 S   0.66666666666667 0.66666666666667 0.5640000000 

K_POINTS crystal
63
0.0000000000  0.0000000000  0.0000000000  1.0
0.7142857143  0.1428571429  0.0000000000  1.0
0.4285714286  0.2857142857  0.0000000000  1.0
0.1428571429  0.4285714286  0.0000000000  1.0
0.8571428571  0.5714285714  0.0000000000  1.0
0.5714285714  0.7142857143  0.0000000000  1.0
0.2857142857  0.8571428571  0.0000000000  1.0
0.9047619048  0.0476190476  0.0000000000  1.0
0.6190476191  0.1904761905  0.0000000000  1.0
0.3333333333  0.3333333333  0.0000000000  1.0
0.0476190476  0.4761904762  0.0000000000  1.0
0.7619047619  0.6190476190  0.0000000000  1.0
0.4761904762  0.7619047619  0.0000000000  1.0
0.1904761905  0.9047619048  0.0000000000  1.0
0.8095238095  0.0952380952  0.0000000000  1.0
0.5238095238  0.2380952381  0.0000000000  1.0
0.2380952381  0.3809523810  0.0000000000  1.0
0.9523809524  0.5238095238  0.0000000000  1.0
0.6666666667  0.6666666667  0.0000000000  1.0
0.3809523809  0.8095238095  0.0000000000  1.0
0.0952380952  0.9523809524  0.0000000000  1.0
0.1428571428  0.0952380952  0.0000000000  1.0
0.8571428571  0.2380952381  0.0000000000  1.0
0.5714285714  0.3809523809  0.0000000000  1.0
0.2857142857  0.5238095238  0.0000000000  1.0
-0.0000000000  0.6666666667  0.0000000000  1.0
0.7142857143  0.8095238095  0.0000000000  1.0
0.4285714286  0.9523809524  0.0000000000  1.0
0.3333333333  -0.0000000000  0.0000000000  1.0
0.0476190476  0.1428571428  0.0000000000  1.0
0.7619047619  0.2857142857  0.0000000000  1.0
0.4761904762  0.4285714286  0.0000000000  1.0
0.1904761905  0.5714285714  0.0000000000  1.0
0.9047619048  0.7142857143  0.0000000000  1.0
0.6190476190  0.8571428571  0.0000000000  1.0
0.2380952381  0.0476190476  0.0000000000  1.0
0.9523809524  0.1904761905  0.0000000000  1.0
0.6666666666  0.3333333333  0.0000000000  1.0
0.3809523809  0.4761904762  0.0000000000  1.0
0.0952380952  0.6190476190  0.0000000000  1.0
0.8095238095  0.7619047619  0.0000000000  1.0
0.5238095238  0.9047619048  0.0000000000  1.0
0.5714285714  0.0476190476  0.0000000000  1.0
0.2857142857  0.1904761905  0.0000000000  1.0
0.0000000000  0.3333333333  0.0000000000  1.0
0.7142857143  0.4761904762  0.0000000000  1.0
0.4285714286  0.6190476191  0.0000000000  1.0
0.1428571429  0.7619047619  0.0000000000  1.0
0.8571428572  0.9047619048  0.0000000000  1.0
0.4761904762  0.0952380952  0.0000000000  1.0
0.1904761905  0.2380952381  0.0000000000  1.0
0.9047619048  0.3809523810  0.0000000000  1.0
0.6190476191  0.5238095238  0.0000000000  1.0
0.3333333334  0.6666666667  0.0000000000  1.0
0.0476190476  0.8095238095  0.0000000000  1.0
0.7619047619  0.9523809524  0.0000000000  1.0
0.6666666667  0.0000000000  0.0000000000  1.0
0.3809523810  0.1428571429  0.0000000000  1.0
0.0952380952  0.2857142857  0.0000000000  1.0
0.8095238095  0.4285714286  0.0000000000  1.0
0.5238095238  0.5714285714  0.0000000000  1.0
0.2380952381  0.7142857143  0.0000000000  1.0
0.9523809524  0.8571428572  0.0000000000  1.0
