# SIESTA INPUT #
SystemLabel              WS2
NumberOfSpecies 2
%block ChemicalSpeciesLabel
 1 74 W
 2 16 S
%endblock ChemicalSpeciesLabel
LatticeConstant 1.0 Ang
%block LatticeVectors
3.1500000000000 0.000000000000  0.00
1.575000000000  2.7279800219    0.00
0.000000000000  0.000000000000  25.0
%endblock LatticeVectors
NumberOfAtoms 3
AtomicCoordinatesFormat Fractional
%block AtomicCoordinatesAndAtomicSpecies
  0.33333333333333 0.33333333333333 0.5000000000  1
  0.66666666666667 0.66666666666667 0.4360000000  2
  0.66666666666667 0.66666666666667 0.5640000000  2
%endblock AtomicCoordinatesAndAtomicSpecies
XC.functional            LDA
XC.authors               PZ
PAO.BasisSize DZP
MeshCutoff               1000 Ry
OccupationFunction       MP
OccupationMPOrder        1
ElectronicTemperature    0.000001 eV
%block kgrid_Monkhorst_Pack
      6     0     0        0.0
      0     6     0        0.0
      0     0     1        0.0
%endblock kgrid_Monkhorst_Pack
SolutionMethod           diagon
Diag.ParallelOverK       T
# Diag.Algorithm           ELPA
# NumberOfEigenStates      1300
DM.UseSaveDM             F
MD.UseSaveXV             T
MD.Steps                 0
MD.TypeOfRun             Broyden
MD.MaxForceTol           0.01 eV/Ang
MD.VariableCell          F
MaxSCFIterations         1000
SCF.DM.Converge          T
SCF.DM.Tolerance         1.0d-8
SCF.MustConverge         T
SCF.Mix                  Hamiltonian
SCF.Mixer.Method         Pulay
SCF.Mixer.Variant        original
SCF.Mixer.Weight         0.30
SCF.Mixer.History        10
Write.DM                 T
Write.H                  F
WriteMullikenPop         1
WriteEigenvalues         T
WriteCoorInitial         T
WriteCoorStep            T
WriteForces              T
XML.Write                T
SaveHS                   F
SaveRho                  T
SaveDeltaRho             F
SaveRhoXC                T
SaveElectrostaticPotential T
SaveNeutralAtomPotential   F
SaveTotalPotential         T
SaveIonicCharge            F
SaveBaderCharge            F
SaveTotalCharge            F
CDF.Save                 T
CDF.Grid.Precision       double
##################
# Band Structure #
##################
BandLinesScale ReciprocalLatticeVectors
%block BandLines
1  0.0000000   0.00000000 0.000   \Gamma
30 0.3333333   0.66666666 0.000   K
15 0.5000000   0.50000000 0.000   M
26 0.0000000   0.00000000 0.000   \Gamma
%endblock bandlinek
#WFS.Write.For.Bands T
#WFS.Band.Min 400
#WFS.Band.Max 500
#%block BandLines
#1  0.0000000   0.00000000 0.000   \Gamma
#60 7.0000000  -2.33333333 0.000   K
#60 3.5000000  -3.50000000 0.000   M
#60 0.0000000   0.00000000 0.000   \Gamma
#%endblock BandLines
################
# Wavefunction #
#################
# WriteWaveFunctions              F
# WaveFuncKPointsScale ReciprocalLatticeVectors
# %block WaveFuncKPoints
# 0.000  0.000  0.000  from 1 to 10 # Gamma wavefuncs 1 to 10
# 2.000  0.000  0.000  1 3 5        # X wavefuncs 1,3 and 5
# 1.500  1.500  1.500               # K wavefuncs, all
# %endblock WaveFuncKPoints
########
# PDOS #
########
# %block ProjectedDensityOfStates
# -10.00  0.00  0.050  500  eV
# %endblock ProjectedDensityOfStates
# %block PDOS.kgrid_Monkhorst_Pack
#       3      0     0        0.0
#       0      3     0        0.0
#       0      0     1        0.0
# %endblock PDOS.kgrid_Monkhorst_Pack
# %include grimme.fdf
# Slab.DipoleCorrection vacuum
# %block Geometry.Charge
# plane   0
# delta
# 0.0 0.0 2.5 Ang  # An intersection point, in the plane
# 0.0 0.0 1.0      # The normal vector to the plane
# %endblock Geometry.Charge
